Route #1: 92 64 83 52 82 69 98 88 61 90 99 53 9 86 57 22 49 20 56 66 96 54 93 80 70 100
Route #2: 72 36 39 42 5 45 2 44 40 38 71 67 85 51 84 81 3 46 4 1 60 17 13 74 58 77 25 48
Route #3: 65 14 47 59 75 16 15 11 12 78 73 79 7 8 6 41 94 50 34 26 32 89 24 91
Route #4: 95 63 62 33 28 27 29 31 30 76 23 21 18 19 87 97 10 55 43 35 37 68
Cost 82667.3